Route #1: 75 4 48 5 29 45 27 52 34 67
Route #2: 46 8 19 54 13 57 15 37 20 70 60 71 69 36 47
Route #3: 6 1 43 41 42 64 22 61 21 2 68
Route #4: 30 74 28 62 73 33 63 23 56 24 49 16 51
Route #5: 3 44 32 50 18 55 25 9 39 31 10
Route #6: 38 65 66 11 59 14 53 35 7
Route #7: 17 40 12 72 58 26
Cost 723